mass    1 28.086  #Si
mass    2 15.9994 #O

variable        sw_path string "${home_dir}/../potentials/MahadevanDu/sw_sionah.UNT"
variable        table_path string "${home_dir}/../potentials/MahadevanDu/MGSiOHNa.UNT"

pair_style      hybrid/overlay table linear 20000 sw
pair_coeff      * * sw ${sw_path} Si O

pair_coeff      1 1 table ${table_path} SiSi 10
pair_coeff      1 2 table ${table_path} OSi 10

pair_coeff      2 2 table ${table_path} OO 10
